%Nprocshared=1
%Mem=4000mb
# wB97xd 6-31++G**
 
/home/kubeckaj/TUTORIAL/LECTURE_3/TASK_09/H.xyz
 
0 2
H 0.0 0.0 0.0
 
