%Nprocshared=1
%Mem=4000mb
# HF 6-31++g** 
 
/home/kubeckaj/TUTORIAL/LECTURE_3/TASK_09/H.xyz
 
0 2
H 0.0 0.0 0.0
 
