%Nprocshared=1
%Mem=4000mb
# MP2 aug-cc-pVDZ
 
/home/kubeckaj/TUTORIAL/LECTURE_3/TASK_09/H.xyz
 
0 2
H 0.0 0.0 0.0
 
